language Essence 1.3

letting blksize_delta be
        function(1 --> 1, 2 --> 1, 3 --> 1, 4 --> 1, 5 --> 1, 6 --> 1, 7 --> 1, 8 --> 1, 9 --> 1, 10 --> 1, 11 --> 1,
                 12 --> 1, 13 --> 1, 14 --> 1, 15 --> 1, 16 --> 1, 17 --> 1, 18 --> 1, 19 --> 1, 20 --> 1, 21 --> 1,
                 22 --> 1, 23 --> 1, 24 --> 1, 25 --> 1, 26 --> 1, 27 --> 1, 28 --> 1, 29 --> 1, 30 --> 1, 31 --> 1)
letting maxcars be
        function(1 --> 5, 2 --> 10, 3 --> 10, 4 --> 10, 5 --> 10, 6 --> 10, 7 --> 10, 8 --> 10, 9 --> 10, 10 --> 10,
                 11 --> 8, 12 --> 10, 13 --> 10, 14 --> 10, 15 --> 10, 16 --> 10, 17 --> 10, 18 --> 10, 19 --> 5,
                 20 --> 10, 21 --> 10, 22 --> 10, 23 --> 10, 24 --> 10, 25 --> 10, 26 --> 10, 27 --> 10, 28 --> 10,
                 29 --> 10, 30 --> 8, 31 --> 10)
letting n_cars be 151
letting n_classes be 2
letting n_options be 31
letting quantity be function(1 --> 76, 2 --> 75)
letting usage be
        relation((1, 1), (1, 2), (1, 4), (1, 5), (1, 6), (1, 7), (1, 8), (1, 9), (1, 10), (1, 11), (1, 12), (1, 13),
                 (1, 14), (1, 15), (1, 16), (1, 17), (1, 18), (1, 19), (1, 20), (1, 21), (1, 22), (1, 24), (1, 25),
                 (1, 27), (1, 28), (1, 29), (1, 30), (2, 3), (2, 23), (2, 26), (2, 31))
$ Visualisation for usage
$  1  1
$  1  2
$  1  4
$  1  5
$  1  6
$  1  7
$  1  8
$  1  9
$  1 10
$  1 11
$  1 12
$  1 13
$  1 14
$  1 15
$  1 16
$  1 17
$  1 18
$  1 19
$  1 20
$  1 21
$  1 22
$  1 24
$  1 25
$  1 27
$  1 28
$  1 29
$  1 30
$  2  3
$  2 23
$  2 26
$  2 31

